2	24	1	8	29	100	0	0	0	0	0	0
800	1	0	0	0	0	0	0	0	0	0	0
800	1	0	0	0	0	0	0	0	0	0	0
100	1	0	65.8	0.46	1	0	0	0	0	0	0
100	1	0	65.8	0.46	1	0	0	0	0	0	0
100	1	0	65.8	0.46	1	0	0	0	0	0	0
100	1	0	65.8	0.46	1	0	0	0	0	0	0
100	1	0	65.8	0.46	1	0	0	0	0	0	0
100	1	0	65.8	0.46	1	0	0	0	0	0	0
100	1	0	65.8	0.46	1	0	0	0	0	0	0
100	1	0	65.8	0.46	1	0	0	0	0	0	0
100	1	0	65.8	0.46	1	0	0	0	0	0	0
100	1	0	65.8	0.46	1	0	0	0	0	0	0
100	1	0	65.8	0.46	1	0	0	0	0	0	0
100	1	0	65.8	0.46	1	0	0	0	0	0	0
100	1	0	65.8	0.46	1	0	0	0	0	0	0
100	1	0	65.8	0.46	1	0	0	0	0	0	0
100	1	0	65.8	0.46	1	0	0	0	0	0	0
100	1	0	65.8	0.46	1	0	0	0	0	0	0
100	1	0	65.8	0.46	1	0	0	0	0	0	0
100	1	0	65.8	0.46	1	0	0	0	0	0	0
100	1	0	65.8	0.46	1	0	0	0	0	0	0
100	1	0	65.8	0.46	1	0	0	0	0	0	0
100	1	0	65.8	0.46	1	0	0	0	0	0	0
100	1	0	65.8	0.46	1	0	0	0	0	0	0
100	1	0	65.8	0.46	1	0	0	0	0	0	0
100	1	0	65.8	0.46	1	0	0	0	0	0	0
50	150	0	0	0	0	230	0	0	99999	0	0
25	25	0	0	0	0	230	0	0	99999	0	0
50	25	0	0	0	0	230	0	0	99999	0	0
75	25	0	0	0	0	230	0	0	99999	0	0
25	50	0	0	0	0	230	0	0	99999	0	0
75	50	0	0	0	0	230	0	0	99999	0	0
25	75	0	0	0	0	230	0	0	99999	0	0
50	75	0	0	0	0	230	0	0	99999	0	0
75	75	0	0	0	0	230	0	0	99999	0	0
25	25	0	0	0	0	230	0	0	0	0	0
50	25	0	0	0	0	230	0	0	0	0	0
75	25	0	0	0	0	230	0	0	0	0	0
25	50	0	0	0	0	230	0	0	0	0	0
75	50	0	0	0	0	230	0	0	0	0	0
25	75	0	0	0	0	230	0	0	0	0	0
50	75	0	0	0	0	230	0	0	0	0	0
75	75	0	0	0	0	230	0	0	0	0	0
35      35      0       0       0       0       230     0       0       0       0       0
61      37      0       0       0       0       230     0       0       0       0       0
74      39      0       0       0       0       230     0       0       0       0       0
47      57      0       0       0       0       230     0       0       0       0       0
57      65      0       0       0       0       230     0       0       0       0       0
29      59      0       0       0       0       230     0       0       0       0       0
34      71      0       0       0       0       230     0       0       0       0       0
22      58      0       0       0       0       230     0       0       0       0       0
7	61	0	0	0	0	230	0	0	0	0	0
18	41	0	0	0	0	230	0	0	0	0	0
5	39	0	0	0	0	230	0	0	0	0	0
14	20	0	0	0	0	230	0	0	0	0	0
0	26	0	0	0	0	230	0	0	0	0	0
24	25	0	0	0	0	230	0	0	0	0	0
26	6	0	0	0	0	230	0	0	0	0	0
34	20	0	0	0	0	230	0	0	0	0	0
41	5	0	0	0	0	230	0	0	0	0	0
50	9	0	0	0	0	230	0	0	0	0	0
61	14	0	0	0	0	230	0	0	0	0	0
62	21	0	0	0	0	230	0	0	0	0	0
74	30	0	0	0	0	230	0	0	0	0	0
41	49	10	8	2	134	180	10	0	0	0	0
35	17	7	3	4	156	280	10	0	0	0	0
55	45	13	11	2	139	313	10	0	0	0	0
55	20	19	7	12	209	247	10	0	0	0	0
15	30	26	13	13	174	315	10	0	0	0	0
25	30	3	3	0	151	281	10	0	0	0	0
20	50	5	2	3	190	228	10	0	0	0	0
10	43	9	2	7	143	239	10	0	0	0	0
55	60	16	15	1	184	303	10	0	0	0	0
30	60	16	8	8	236	310	10	0	0	0	0
20	65	12	4	8	194	284	10	0	0	0	0
50	35	19	13	6	276	320	10	0	0	0	0
30	25	23	19	4	233	324	10	0	0	0	0
15	10	20	13	7	149	253	10	0	0	0	0
30	5	8	1	7	204	266	10	0	0	0	0
10	20	19	10	9	146	258	10	0	0	0	0
5	30	2	0	2	159	229	10	0	0	0	0
20	40	12	6	6	209	287	10	0	0	0	0
15	60	17	4	13	200	303	10	0	0	0	0
45	65	9	6	3	148	201	10	0	0	0	0
45	20	11	5	6	135	258	10	0	0	0	0
45	10	18	4	14	143	235	10	0	0	0	0
55	5	29	3	26	164	299	10	0	0	0	0
65	35	3	2	1	227	306	10	0	0	0	0
65	20	6	2	4	164	246	10	0	0	0	0
45	30	17	11	6	235	324	10	0	0	0	0
35	40	16	14	2	168	331	10	0	0	0	0
41	37	16	14	2	217	329	10	0	0	0	0
64	42	9	6	3	198	278	10	0	0	0	0
40	60	21	14	7	234	310	10	0	0	0	0
31	52	27	16	11	134	318	10	0	0	0	0
35	69	23	12	11	212	302	10	0	0	0	0
53	52	11	11	0	141	281	10	0	0	0	0
65	55	14	12	2	197	299	10	0	0	0	0
63	65	8	8	0	171	294	10	0	0	0	0
2	60	5	0	5	197	294	10	0	0	0	0
20	20	8	8	0	150	314	10	0	0	0	0
5	5	16	16	0	172	293	10	0	0	0	0
60	12	31	6	25	166	302	10	0	0	0	0
40	25	9	6	3	128	189	10	0	0	0	0
42	7	5	1	4	204	307	10	0	0	0	0
24	12	5	3	2	247	289	10	0	0	0	0
23	3	7	1	6	159	301	10	0	0	0	0
11	14	18	14	4	194	304	10	0	0	0	0
6	38	16	3	13	146	306	10	0	0	0	0
2	48	1	0	1	190	300	10	0	0	0	0
8	56	27	4	23	180	301	10	0	0	0	0
13	52	36	9	27	194	308	10	0	0	0	0
6	68	30	3	27	174	268	10	0	0	0	0
47	47	13	13	0	211	267	10	0	0	0	0
49	58	10	8	2	205	309	10	0	0	0	0
27	43	9	6	3	163	301	10	0	0	0	0
37	31	14	12	2	231	331	10	0	0	0	0
57	29	18	9	9	163	255	10	0	0	0	0
63	23	2	1	1	147	301	10	0	0	0	0
53	12	6	1	5	146	277	10	0	0	0	0
32	12	7	3	4	226	312	10	0	0	0	0
36	26	18	13	5	190	276	10	0	0	0	0
21	24	28	25	3	176	268	10	0	0	0	0
17	34	3	2	1	135	241	10	0	0	0	0
12	24	13	7	6	142	310	10	0	0	0	0
24	58	19	8	11	142	237	10	0	0	0	0
27	69	10	4	6	163	301	10	0	0	0	0
15	77	9	2	7	211	280	10	0	0	0	0
62	77	20	16	4	184	252	10	0	0	0	0
49	73	25	17	8	169	295	10	0	0	0	0
67	5	25	2	23	176	278	10	0	0	0	0
56	39	36	25	11	138	263	10	0	0	0	0
37	47	6	5	1	224	320	10	0	0	0	0
37	56	5	3	2	139	201	10	0	0	0	0
57	68	15	13	2	248	296	10	0	0	0	0
47	16	25	9	16	170	294	10	0	0	0	0
44	17	9	3	6	235	279	10	0	0	0	0
46	13	8	2	6	141	200	10	0	0	0	0
49	11	18	4	14	148	212	10	0	0	0	0
49	42	13	11	2	219	320	10	0	0	0	0
53	43	14	11	3	204	316	10	0	0	0	0
61	52	3	3	0	148	304	10	0	0	0	0
57	48	23	19	4	164	258	10	0	0	0	0
56	37	6	4	2	158	300	10	0	0	0	0
55	54	26	26	0	144	221	10	0	0	0	0
15	47	16	5	11	240	312	10	0	0	0	0
14	37	11	4	7	209	314	10	0	0	0	0
11	31	7	2	5	163	271	10	0	0	0	0
16	22	41	30	11	140	312	10	0	0	0	0
4	18	35	8	27	263	289	10	0	0	0	0
28	18	26	17	9	287	287	10	0	0	0	0
26	52	9	5	4	194	316	10	0	0	0	0
26	35	15	11	4	125	249	10	0	0	0	0
31	67	3	1	2	203	273	10	0	0	0	0
15	19	1	1	0	142	276	10	0	0	0	0
22	22	2	2	0	157	317	10	0	0	0	0
18	24	22	17	5	215	253	10	0	0	0	0
26	27	27	26	1	246	323	10	0	0	0	0
25	24	20	19	1	176	321	10	0	0	0	0
22	27	11	9	2	133	165	10	0	0	0	0
25	21	12	10	2	249	277	10	0	0	0	0
19	21	10	9	1	182	268	10	0	0	0	0
20	26	9	7	2	232	286	10	0	0	0	0
18	18	17	17	0	209	209	10	0	0	0	0
